data;
param n:=50;
param w:=1 96 2 208 3 -98 4 159 5 184 6 46 7 -18 8 179 9 210 10 206 11 221 12 75 13 -248 14 -166 15 176 16 162 17 60 18 9 19 165 20 66 21 141 22 -144 23 -36 24 35 25 -6 26 96 27 -38 28 188 29 -18 30 -247 31 -137 32 -144 33 -218 34 -109 35 -174 36 -268 37 162 38 -70 39 -209 40 14 41 -33 42 40 43 -106 44 36 45 -249 46 -205 47 3 48 62 49 -186 50 128;
